Mo108 S216
1.0
   9.5709472043999995   16.5773656404000000    0.0000000000000000
 -19.1418923399999983    0.0000000000000000    0.0000000000000000
   0.0000000000000000    0.0000000000000000   69.3893062001999965
S Mo
216 108
direct
   0.0555555555556667    0.1111111111110000    0.1441144255160000 S
   0.0555555555556667    0.1111111111110000    0.1892189078173334 S
   0.0555555555556667    0.2777777777776667    0.1441144255160000 S
   0.0555555555556667    0.2777777777776667    0.1892189078173334 S
   0.2222222222223334    0.1111111111110000    0.1441144255160000 S
   0.2222222222223334    0.1111111111110000    0.1892189078173334 S
   0.2222222222223334    0.2777777777776667    0.1441144255160000 S
   0.2222222222223334    0.2777777777776667    0.1892189078173334 S
  -0.2777777777776667   -0.2222222222223333   -0.1892189078173334 S
  -0.2777777777776667   -0.2222222222223333   -0.1441144255160000 S
  -0.2777777777776667   -0.0555555555556667   -0.1892189078173334 S
  -0.2777777777776667   -0.0555555555556667   -0.1441144255160000 S
  -0.1111111111110000   -0.2222222222223333   -0.1892189078173334 S
  -0.1111111111110000   -0.2222222222223333   -0.1441144255160000 S
  -0.1111111111110000   -0.0555555555556667   -0.1892189078173334 S
  -0.1111111111110000   -0.0555555555556667   -0.1441144255160000 S
  -0.2777777777776667   -0.2222222222223333    0.1441144255160000 S
  -0.2777777777776667   -0.2222222222223333    0.1892189078173334 S
  -0.2777777777776667   -0.0555555555556667    0.1441144255160000 S
  -0.2777777777776667   -0.0555555555556667    0.1892189078173334 S
  -0.1111111111110000   -0.2222222222223333    0.1441144255160000 S
  -0.1111111111110000   -0.2222222222223333    0.1892189078173334 S
  -0.1111111111110000   -0.0555555555556667    0.1441144255160000 S
  -0.1111111111110000   -0.0555555555556667    0.1892189078173334 S
  -0.2777777777776667   -0.2222222222223333    0.4774477588493333 S
  -0.2777777777776667   -0.2222222222223333    0.5225522411506667 S
  -0.2777777777776667   -0.0555555555556667    0.4774477588493333 S
  -0.2777777777776667   -0.0555555555556667    0.5225522411506667 S
  -0.1111111111110000   -0.2222222222223333    0.4774477588493333 S
  -0.1111111111110000   -0.2222222222223333    0.5225522411506667 S
  -0.1111111111110000   -0.0555555555556667    0.4774477588493333 S
  -0.1111111111110000   -0.0555555555556667    0.5225522411506667 S
  -0.2777777777776667    0.1111111111110000   -0.1892189078173334 S
  -0.2777777777776667    0.1111111111110000   -0.1441144255160000 S
  -0.2777777777776667    0.2777777777776667   -0.1892189078173334 S
  -0.2777777777776667    0.2777777777776667   -0.1441144255160000 S
  -0.1111111111110000    0.1111111111110000   -0.1892189078173334 S
  -0.1111111111110000    0.1111111111110000   -0.1441144255160000 S
  -0.1111111111110000    0.2777777777776667   -0.1892189078173334 S
  -0.1111111111110000    0.2777777777776667   -0.1441144255160000 S
  -0.2777777777776667    0.1111111111110000    0.1441144255160000 S
  -0.2777777777776667    0.1111111111110000    0.1892189078173334 S
  -0.2777777777776667    0.2777777777776667    0.1441144255160000 S
  -0.2777777777776667    0.2777777777776667    0.1892189078173334 S
  -0.1111111111110000    0.1111111111110000    0.1441144255160000 S
  -0.1111111111110000    0.1111111111110000    0.1892189078173334 S
  -0.1111111111110000    0.2777777777776667    0.1441144255160000 S
  -0.1111111111110000    0.2777777777776667    0.1892189078173334 S
  -0.2777777777776667    0.1111111111110000    0.4774477588493333 S
  -0.2777777777776667    0.1111111111110000    0.5225522411506667 S
  -0.2777777777776667    0.2777777777776667    0.4774477588493333 S
  -0.2777777777776667    0.2777777777776667    0.5225522411506667 S
  -0.1111111111110000    0.1111111111110000    0.4774477588493333 S
  -0.1111111111110000    0.1111111111110000    0.5225522411506667 S
  -0.1111111111110000    0.2777777777776667    0.4774477588493333 S
  -0.1111111111110000    0.2777777777776667    0.5225522411506667 S
  -0.2777777777776667    0.4444444444443334   -0.1892189078173334 S
  -0.2777777777776667    0.4444444444443334   -0.1441144255160000 S
  -0.2777777777776667    0.6111111111109999   -0.1892189078173334 S
  -0.2777777777776667    0.6111111111109999   -0.1441144255160000 S
  -0.1111111111110000    0.4444444444443334   -0.1892189078173334 S
  -0.1111111111110000    0.4444444444443334   -0.1441144255160000 S
  -0.1111111111110000    0.6111111111110000   -0.1892189078173334 S
  -0.1111111111110000    0.6111111111110000   -0.1441144255160000 S
  -0.2777777777776667    0.4444444444443334    0.1441144255160000 S
  -0.2777777777776667    0.4444444444443334    0.1892189078173334 S
  -0.2777777777776667    0.6111111111109999    0.1441144255160000 S
  -0.2777777777776667    0.6111111111109999    0.1892189078173334 S
  -0.1111111111110000    0.4444444444443334    0.1441144255160000 S
  -0.1111111111110000    0.4444444444443334    0.1892189078173334 S
  -0.1111111111110000    0.6111111111110000    0.1441144255160000 S
  -0.1111111111110000    0.6111111111110000    0.1892189078173334 S
  -0.2777777777776667    0.4444444444443334    0.4774477588493333 S
  -0.2777777777776667    0.4444444444443334    0.5225522411506667 S
  -0.2777777777776667    0.6111111111109999    0.4774477588493333 S
  -0.2777777777776667    0.6111111111109999    0.5225522411506667 S
  -0.1111111111110000    0.4444444444443334    0.4774477588493333 S
  -0.1111111111110000    0.4444444444443334    0.5225522411506667 S
  -0.1111111111110000    0.6111111111110000    0.4774477588493333 S
  -0.1111111111110000    0.6111111111110000    0.5225522411506667 S
   0.0555555555556667   -0.2222222222223333   -0.1892189078173334 S
   0.0555555555556667   -0.2222222222223333   -0.1441144255160000 S
   0.0555555555556667   -0.0555555555556667   -0.1892189078173334 S
   0.0555555555556667   -0.0555555555556667   -0.1441144255160000 S
   0.2222222222223334   -0.2222222222223334   -0.1892189078173334 S
   0.2222222222223334   -0.2222222222223334   -0.1441144255160000 S
   0.2222222222223334   -0.0555555555556667   -0.1892189078173334 S
   0.2222222222223334   -0.0555555555556667   -0.1441144255160000 S
   0.0555555555556667   -0.2222222222223333    0.1441144255160000 S
   0.0555555555556667   -0.2222222222223333    0.1892189078173334 S
   0.0555555555556667   -0.0555555555556667    0.1441144255160000 S
   0.0555555555556667   -0.0555555555556667    0.1892189078173334 S
   0.2222222222223334   -0.2222222222223334    0.1441144255160000 S
   0.2222222222223334   -0.2222222222223334    0.1892189078173334 S
   0.2222222222223334   -0.0555555555556667    0.1441144255160000 S
   0.2222222222223334   -0.0555555555556667    0.1892189078173334 S
   0.0555555555556667   -0.2222222222223333    0.4774477588493333 S
   0.0555555555556667   -0.2222222222223333    0.5225522411506667 S
   0.0555555555556667   -0.0555555555556667    0.4774477588493333 S
   0.0555555555556667   -0.0555555555556667    0.5225522411506667 S
   0.2222222222223334   -0.2222222222223334    0.4774477588493333 S
   0.2222222222223334   -0.2222222222223334    0.5225522411506667 S
   0.2222222222223334   -0.0555555555556667    0.4774477588493333 S
   0.2222222222223334   -0.0555555555556667    0.5225522411506667 S
   0.0555555555556667    0.1111111111110000   -0.1892189078173334 S
   0.0555555555556667    0.1111111111110000   -0.1441144255160000 S
   0.0555555555556667    0.2777777777776667   -0.1892189078173334 S
   0.0555555555556667    0.2777777777776667   -0.1441144255160000 S
   0.2222222222223334    0.1111111111110000   -0.1892189078173334 S
   0.2222222222223334    0.1111111111110000   -0.1441144255160000 S
   0.2222222222223334    0.2777777777776667   -0.1892189078173334 S
   0.2222222222223334    0.2777777777776667   -0.1441144255160000 S
   0.0555555555556667    0.1111111111110000    0.4774477588493333 S
   0.0555555555556667    0.1111111111110000    0.5225522411506667 S
   0.0555555555556667    0.2777777777776667    0.4774477588493333 S
   0.0555555555556667    0.2777777777776667    0.5225522411506667 S
   0.2222222222223334    0.1111111111110000    0.4774477588493333 S
   0.2222222222223334    0.1111111111110000    0.5225522411506667 S
   0.2222222222223334    0.2777777777776667    0.4774477588493333 S
   0.2222222222223334    0.2777777777776667    0.5225522411506667 S
   0.0555555555556667    0.4444444444443334   -0.1892189078173334 S
   0.0555555555556667    0.4444444444443334   -0.1441144255160000 S
   0.0555555555556667    0.6111111111110000   -0.1892189078173334 S
   0.0555555555556667    0.6111111111110000   -0.1441144255160000 S
   0.2222222222223334    0.4444444444443333   -0.1892189078173334 S
   0.2222222222223334    0.4444444444443333   -0.1441144255160000 S
   0.2222222222223334    0.6111111111110000   -0.1892189078173334 S
   0.2222222222223334    0.6111111111110000   -0.1441144255160000 S
   0.0555555555556667    0.4444444444443334    0.1441144255160000 S
   0.0555555555556667    0.4444444444443334    0.1892189078173334 S
   0.0555555555556667    0.6111111111110000    0.1441144255160000 S
   0.0555555555556667    0.6111111111110000    0.1892189078173334 S
   0.2222222222223334    0.4444444444443333    0.1441144255160000 S
   0.2222222222223334    0.4444444444443333    0.1892189078173334 S
   0.2222222222223334    0.6111111111110000    0.1441144255160000 S
   0.2222222222223334    0.6111111111110000    0.1892189078173334 S
   0.0555555555556667    0.4444444444443334    0.4774477588493333 S
   0.0555555555556667    0.4444444444443334    0.5225522411506667 S
   0.0555555555556667    0.6111111111110000    0.4774477588493333 S
   0.0555555555556667    0.6111111111110000    0.5225522411506667 S
   0.2222222222223334    0.4444444444443333    0.4774477588493333 S
   0.2222222222223334    0.4444444444443333    0.5225522411506667 S
   0.2222222222223334    0.6111111111110000    0.4774477588493333 S
   0.2222222222223334    0.6111111111110000    0.5225522411506667 S
   0.3888888888890000   -0.2222222222223333   -0.1892189078173334 S
   0.3888888888890000   -0.2222222222223333   -0.1441144255160000 S
   0.3888888888890000   -0.0555555555556667   -0.1892189078173334 S
   0.3888888888890000   -0.0555555555556667   -0.1441144255160000 S
   0.5555555555556667   -0.2222222222223333   -0.1892189078173334 S
   0.5555555555556667   -0.2222222222223333   -0.1441144255160000 S
   0.5555555555556667   -0.0555555555556667   -0.1892189078173334 S
   0.5555555555556667   -0.0555555555556667   -0.1441144255160000 S
   0.3888888888890000   -0.2222222222223333    0.1441144255160000 S
   0.3888888888890000   -0.2222222222223333    0.1892189078173334 S
   0.3888888888890000   -0.0555555555556667    0.1441144255160000 S
   0.3888888888890000   -0.0555555555556667    0.1892189078173334 S
   0.5555555555556667   -0.2222222222223333    0.1441144255160000 S
   0.5555555555556667   -0.2222222222223333    0.1892189078173334 S
   0.5555555555556667   -0.0555555555556667    0.1441144255160000 S
   0.5555555555556667   -0.0555555555556667    0.1892189078173334 S
   0.3888888888890000   -0.2222222222223333    0.4774477588493333 S
   0.3888888888890000   -0.2222222222223333    0.5225522411506667 S
   0.3888888888890000   -0.0555555555556667    0.4774477588493333 S
   0.3888888888890000   -0.0555555555556667    0.5225522411506667 S
   0.5555555555556667   -0.2222222222223333    0.4774477588493333 S
   0.5555555555556667   -0.2222222222223333    0.5225522411506667 S
   0.5555555555556667   -0.0555555555556667    0.4774477588493333 S
   0.5555555555556667   -0.0555555555556667    0.5225522411506667 S
   0.3888888888890000    0.1111111111110000   -0.1892189078173334 S
   0.3888888888890000    0.1111111111110000   -0.1441144255160000 S
   0.3888888888890000    0.2777777777776667   -0.1892189078173334 S
   0.3888888888890000    0.2777777777776667   -0.1441144255160000 S
   0.5555555555556667    0.1111111111110000   -0.1892189078173334 S
   0.5555555555556667    0.1111111111110000   -0.1441144255160000 S
   0.5555555555556667    0.2777777777776667   -0.1892189078173334 S
   0.5555555555556667    0.2777777777776667   -0.1441144255160000 S
   0.3888888888890000    0.1111111111110000    0.1441144255160000 S
   0.3888888888890000    0.1111111111110000    0.1892189078173334 S
   0.3888888888890000    0.2777777777776667    0.1441144255160000 S
   0.3888888888890000    0.2777777777776667    0.1892189078173334 S
   0.5555555555556667    0.1111111111110000    0.1441144255160000 S
   0.5555555555556667    0.1111111111110000    0.1892189078173334 S
   0.5555555555556667    0.2777777777776667    0.1441144255160000 S
   0.5555555555556667    0.2777777777776667    0.1892189078173334 S
   0.3888888888890000    0.1111111111110000    0.4774477588493333 S
   0.3888888888890000    0.1111111111110000    0.5225522411506667 S
   0.3888888888890000    0.2777777777776667    0.4774477588493333 S
   0.3888888888890000    0.2777777777776667    0.5225522411506667 S
   0.5555555555556667    0.1111111111110000    0.4774477588493333 S
   0.5555555555556667    0.1111111111110000    0.5225522411506667 S
   0.5555555555556667    0.2777777777776667    0.4774477588493333 S
   0.5555555555556667    0.2777777777776667    0.5225522411506667 S
   0.3888888888890000    0.4444444444443334   -0.1892189078173334 S
   0.3888888888890000    0.4444444444443334   -0.1441144255160000 S
   0.3888888888890000    0.6111111111109999   -0.1892189078173334 S
   0.3888888888890000    0.6111111111109999   -0.1441144255160000 S
   0.5555555555556667    0.4444444444443334   -0.1892189078173334 S
   0.5555555555556667    0.4444444444443334   -0.1441144255160000 S
   0.5555555555556667    0.6111111111110000   -0.1892189078173334 S
   0.5555555555556667    0.6111111111110000   -0.1441144255160000 S
   0.3888888888890000    0.4444444444443334    0.1441144255160000 S
   0.3888888888890000    0.4444444444443334    0.1892189078173334 S
   0.3888888888890000    0.6111111111109999    0.1441144255160000 S
   0.3888888888890000    0.6111111111109999    0.1892189078173334 S
   0.5555555555556667    0.4444444444443334    0.1441144255160000 S
   0.5555555555556667    0.4444444444443334    0.1892189078173334 S
   0.5555555555556667    0.6111111111110000    0.1441144255160000 S
   0.5555555555556667    0.6111111111110000    0.1892189078173334 S
   0.3888888888890000    0.4444444444443334    0.4774477588493333 S
   0.3888888888890000    0.4444444444443334    0.5225522411506667 S
   0.3888888888890000    0.6111111111109999    0.4774477588493333 S
   0.3888888888890000    0.6111111111109999    0.5225522411506667 S
   0.5555555555556667    0.4444444444443334    0.4774477588493333 S
   0.5555555555556667    0.4444444444443334    0.5225522411506667 S
   0.5555555555556667    0.6111111111110000    0.4774477588493333 S
   0.5555555555556667    0.6111111111110000    0.5225522411506667 S
   0.1111111111110000    0.0555555555556667    0.1666666666666667 Mo
   0.1111111111110000    0.2222222222223334    0.1666666666666667 Mo
   0.2777777777776667    0.0555555555556666    0.1666666666666667 Mo
   0.2777777777776667    0.2222222222223333    0.1666666666666667 Mo
  -0.2222222222223333   -0.2777777777776667   -0.1666666666666667 Mo
  -0.2222222222223333   -0.1111111111109999   -0.1666666666666667 Mo
  -0.0555555555556667   -0.2777777777776667   -0.1666666666666667 Mo
  -0.0555555555556667   -0.1111111111110000   -0.1666666666666667 Mo
  -0.2222222222223333   -0.2777777777776667    0.1666666666666667 Mo
  -0.2222222222223333   -0.1111111111109999    0.1666666666666667 Mo
  -0.0555555555556667   -0.2777777777776667    0.1666666666666667 Mo
  -0.0555555555556667   -0.1111111111110000    0.1666666666666667 Mo
  -0.2222222222223333   -0.2777777777776667    0.5000000000000000 Mo
  -0.2222222222223333   -0.1111111111109999    0.5000000000000000 Mo
  -0.0555555555556667   -0.2777777777776667    0.5000000000000000 Mo
  -0.0555555555556667   -0.1111111111110000    0.5000000000000000 Mo
  -0.2222222222223333    0.0555555555556667   -0.1666666666666667 Mo
  -0.2222222222223333    0.2222222222223334   -0.1666666666666667 Mo
  -0.0555555555556667    0.0555555555556667   -0.1666666666666667 Mo
  -0.0555555555556667    0.2222222222223334   -0.1666666666666667 Mo
  -0.2222222222223333    0.0555555555556667    0.1666666666666667 Mo
  -0.2222222222223333    0.2222222222223334    0.1666666666666667 Mo
  -0.0555555555556667    0.0555555555556667    0.1666666666666667 Mo
  -0.0555555555556667    0.2222222222223334    0.1666666666666667 Mo
  -0.2222222222223333    0.0555555555556667    0.5000000000000000 Mo
  -0.2222222222223333    0.2222222222223334    0.5000000000000000 Mo
  -0.0555555555556667    0.0555555555556667    0.5000000000000000 Mo
  -0.0555555555556667    0.2222222222223334    0.5000000000000000 Mo
  -0.2222222222223333    0.3888888888890000   -0.1666666666666667 Mo
  -0.2222222222223333    0.5555555555556666   -0.1666666666666667 Mo
  -0.0555555555556667    0.3888888888890000   -0.1666666666666667 Mo
  -0.0555555555556667    0.5555555555556667   -0.1666666666666667 Mo
  -0.2222222222223333    0.3888888888890000    0.1666666666666667 Mo
  -0.2222222222223333    0.5555555555556666    0.1666666666666667 Mo
  -0.0555555555556667    0.3888888888890000    0.1666666666666667 Mo
  -0.0555555555556667    0.5555555555556667    0.1666666666666667 Mo
  -0.2222222222223333    0.3888888888890000    0.5000000000000000 Mo
  -0.2222222222223333    0.5555555555556666    0.5000000000000000 Mo
  -0.0555555555556667    0.3888888888890000    0.5000000000000000 Mo
  -0.0555555555556667    0.5555555555556667    0.5000000000000000 Mo
   0.1111111111110000   -0.2777777777776667   -0.1666666666666667 Mo
   0.1111111111110000   -0.1111111111110000   -0.1666666666666667 Mo
   0.2777777777776667   -0.2777777777776667   -0.1666666666666667 Mo
   0.2777777777776667   -0.1111111111110000   -0.1666666666666667 Mo
   0.1111111111110000   -0.2777777777776667    0.1666666666666667 Mo
   0.1111111111110000   -0.1111111111110000    0.1666666666666667 Mo
   0.2777777777776667   -0.2777777777776667    0.1666666666666667 Mo
   0.2777777777776667   -0.1111111111110000    0.1666666666666667 Mo
   0.1111111111110000   -0.2777777777776667    0.5000000000000000 Mo
   0.1111111111110000   -0.1111111111110000    0.5000000000000000 Mo
   0.2777777777776667   -0.2777777777776667    0.5000000000000000 Mo
   0.2777777777776667   -0.1111111111110000    0.5000000000000000 Mo
   0.1111111111110000    0.0555555555556667   -0.1666666666666667 Mo
   0.1111111111110000    0.2222222222223334   -0.1666666666666667 Mo
   0.2777777777776667    0.0555555555556666   -0.1666666666666667 Mo
   0.2777777777776667    0.2222222222223333   -0.1666666666666667 Mo
   0.1111111111110000    0.0555555555556667    0.5000000000000000 Mo
   0.1111111111110000    0.2222222222223334    0.5000000000000000 Mo
   0.2777777777776667    0.0555555555556666    0.5000000000000000 Mo
   0.2777777777776667    0.2222222222223333    0.5000000000000000 Mo
   0.1111111111110000    0.3888888888890001   -0.1666666666666667 Mo
   0.1111111111110000    0.5555555555556667   -0.1666666666666667 Mo
   0.2777777777776667    0.3888888888890000   -0.1666666666666667 Mo
   0.2777777777776667    0.5555555555556667   -0.1666666666666667 Mo
   0.1111111111110000    0.3888888888890001    0.1666666666666667 Mo
   0.1111111111110000    0.5555555555556667    0.1666666666666667 Mo
   0.2777777777776667    0.3888888888890000    0.1666666666666667 Mo
   0.2777777777776667    0.5555555555556667    0.1666666666666667 Mo
   0.1111111111110000    0.3888888888890001    0.5000000000000000 Mo
   0.1111111111110000    0.5555555555556667    0.5000000000000000 Mo
   0.2777777777776667    0.3888888888890000    0.5000000000000000 Mo
   0.2777777777776667    0.5555555555556667    0.5000000000000000 Mo
   0.4444444444443334   -0.2777777777776667   -0.1666666666666667 Mo
   0.4444444444443334   -0.1111111111110000   -0.1666666666666667 Mo
   0.6111111111110000   -0.2777777777776667   -0.1666666666666667 Mo
   0.6111111111110000   -0.1111111111110000   -0.1666666666666667 Mo
   0.4444444444443334   -0.2777777777776667    0.1666666666666667 Mo
   0.4444444444443334   -0.1111111111110000    0.1666666666666667 Mo
   0.6111111111110000   -0.2777777777776667    0.1666666666666667 Mo
   0.6111111111110000   -0.1111111111110000    0.1666666666666667 Mo
   0.4444444444443334   -0.2777777777776667    0.5000000000000000 Mo
   0.4444444444443334   -0.1111111111110000    0.5000000000000000 Mo
   0.6111111111110000   -0.2777777777776667    0.5000000000000000 Mo
   0.6111111111110000   -0.1111111111110000    0.5000000000000000 Mo
   0.4444444444443334    0.0555555555556667   -0.1666666666666667 Mo
   0.4444444444443334    0.2222222222223334   -0.1666666666666667 Mo
   0.6111111111110000    0.0555555555556666   -0.1666666666666667 Mo
   0.6111111111110000    0.2222222222223333   -0.1666666666666667 Mo
   0.4444444444443334    0.0555555555556667    0.1666666666666667 Mo
   0.4444444444443334    0.2222222222223334    0.1666666666666667 Mo
   0.6111111111110000    0.0555555555556666    0.1666666666666667 Mo
   0.6111111111110000    0.2222222222223333    0.1666666666666667 Mo
   0.4444444444443334    0.0555555555556667    0.5000000000000000 Mo
   0.4444444444443334    0.2222222222223334    0.5000000000000000 Mo
   0.6111111111110000    0.0555555555556666    0.5000000000000000 Mo
   0.6111111111110000    0.2222222222223333    0.5000000000000000 Mo
   0.4444444444443334    0.3888888888890000   -0.1666666666666667 Mo
   0.4444444444443334    0.5555555555556667   -0.1666666666666667 Mo
   0.6111111111110000    0.3888888888890000   -0.1666666666666667 Mo
   0.6111111111110000    0.5555555555556667   -0.1666666666666667 Mo
   0.4444444444443334    0.3888888888890000    0.1666666666666667 Mo
   0.4444444444443334    0.5555555555556667    0.1666666666666667 Mo
   0.6111111111110000    0.3888888888890000    0.1666666666666667 Mo
   0.6111111111110000    0.5555555555556667    0.1666666666666667 Mo
   0.4444444444443334    0.3888888888890000    0.5000000000000000 Mo
   0.4444444444443334    0.5555555555556667    0.5000000000000000 Mo
   0.6111111111110000    0.3888888888890000    0.5000000000000000 Mo
   0.6111111111110000    0.5555555555556667    0.5000000000000000 Mo
