Li48 Si24
1.0
   8.4880720000000007    0.0000000000000000    0.0000000000000000
   0.2097000000000000    7.3868099999999997    0.0000000000000000
  -0.1528420000000000   -0.4273390000000000   18.2267569999999992
Li Si
48 24
direct
   0.2447099316406530    0.1638463096650320    0.0255841105470580 Li
   0.4962628752670210    0.6776203234461440    0.0184596923391670 Li
   0.7395933837038170    0.1585002286693600    0.0225358412809730 Li
   0.0077367107348850    0.6577754927537500    0.0260623401581140 Li
   0.2398578418506990    0.1701932665659510    0.3058438710765100 Li
   0.4932092693592580    0.6591899697864561    0.3089979352899590 Li
   0.7579069222633120    0.1606886260531710    0.3069272020233590 Li
   0.0049975936379740    0.6707682108782940    0.3065977835198180 Li
   0.2459449034714470    0.8245590265087860    0.1287389602972320 Li
   0.4885763892744900    0.3216140954501130    0.1323568387394080 Li
   0.7610331803186420    0.8354727293544730    0.1330824146113790 Li
   0.0054331409423490    0.3448646796892100    0.1294124012590380 Li
   0.0010094358320900    0.0033606869125330    0.2096715659007220 Li
   0.2462394999380810    0.4940144489390690    0.2088871619314230 Li
   0.5100337407872650    0.0018324969849140    0.2026099991072580 Li
   0.7401919022248740    0.4877356474657570    0.2049609131986240 Li
   0.9984027805529910    0.0118389554311370    0.3529272299249440 Li
   0.2439533157221120    0.4926409577107700    0.3537042226258520 Li
   0.5046952339959980    0.9989223434362871    0.3597336534843310 Li
   0.7449853736049030    0.4981221732444830    0.3580509629810410 Li
   0.9959071573551360    0.9966268461892230    0.6464367232591191 Li
   0.2618924791162700    0.5019903999522231    0.6428431123699681 Li
   0.4881283346638160    0.9955581502720150    0.6483466949885440 Li
   0.7470996766232040    0.5055269858292580    0.6403281013153120 Li
   0.2552827155093850    0.1784610087204750    0.4633002390309940 Li
   0.5104623981298519    0.6570005290438020    0.4555903328618940 Li
   0.7577989184571390    0.1541067179037790    0.4575503449441670 Li
   0.9908319977289480    0.6725676535813150    0.4646287730972650 Li
   0.2544994338730500    0.8325767150670640    0.5390788775492470 Li
   0.5104641517331610    0.3396429783450260    0.5362551907772251 Li
   0.7591815638550230    0.8269686961498280    0.5338870851199800 Li
   0.0015614867754290    0.3216384885350460    0.5404348593666750 Li
   0.2411431048795230    0.8202611631608620    0.6938964088217970 Li
   0.5020627812275330    0.3286717173755480    0.6915924778072580 Li
   0.7547106340381650    0.8312177345519990    0.6834484407765640 Li
   0.9974488063116460    0.3366491017022980    0.6919194830291280 Li
   0.2550727662771140    0.8432497003998790    0.9748513766430120 Li
   0.4937450742451870    0.3205367513747350    0.9821497639922460 Li
   0.7572835120397560    0.8428254020601420    0.9783046196446190 Li
   0.0076479189048540    0.3298420882764570    0.9813763297445040 Li
   0.0103666154653870    0.0097556209873260    0.7992995967294710 Li
   0.2549274045526250    0.5005112952169350    0.8004408174178380 Li
   0.4927370281628320    0.0027037714334470    0.7970080942229220 Li
   0.7541803210588220    0.5053373899951480    0.7999156696815670 Li
   0.2560451450764860    0.1593430004224440    0.8748133995457090 Li
   0.4929829973341620    0.6760410448442800    0.8690782877499590 Li
   0.7401974568034110    0.1587511677738680    0.8754913653718400 Li
   0.0097431998840860    0.6695073299477120    0.8734328780679100 Li
   0.9961186658732700    0.0028359502467030    0.0599558763588730 Si
   0.2491170179593060    0.4983719820198610    0.0634129352485730 Si
   0.4975106732505300    0.0024431231276800    0.0599482945963950 Si
   0.7455229742695070    0.5004821589431130    0.0608287254272700 Si
   0.2519439578483080    0.8349806768921700    0.2705441536570720 Si
   0.4989321589513190    0.3335374613744080    0.2713639902409950 Si
   0.7440413950315500    0.8265355390533270    0.2706556092736750 Si
   0.0009405049590050    0.3399557953576670    0.2732430957506440 Si
   0.2534311447349180    0.8290142672641210    0.3959337031333840 Si
   0.5052069146972200    0.3302687018299640    0.3964518777838660 Si
   0.7435239434026690    0.8281547859139520    0.3931037599224330 Si
   0.9968665909316620    0.3364629849747130    0.3937255398020070 Si
   0.2440501009927580    0.1710871318175590    0.6064783395936780 Si
   0.5019951370295100    0.6665977186531190    0.6035680825011380 Si
   0.7531301709148370    0.1715955227986000    0.6053723501934590 Si
   0.9970987740340450    0.6702331615340960    0.6023220784318301 Si
   0.2552167957088520    0.1652068431019690    0.7272249323055680 Si
   0.5023735262057120    0.6657895953600190    0.7301289701575930 Si
   0.7494886872985570    0.1709011775948810    0.7281586340449500 Si
   0.9956706139331150    0.6721489351656000    0.7296058011554550 Si
   0.0052154087749870    0.9941745375468650    0.9369832464358960 Si
   0.2549892434916010    0.4934333138498850    0.9377934123825300 Si
   0.4990922720643370    0.0040195346764480    0.9395114942343610 Si
   0.7506990836018990    0.5052977958576610    0.9404455865618090 Si
